Traveling Salesman Problem/TSP_generados/Aleatorio1621103233_5.tsp
NAME: Aleatorio1621103233_5.tsp
COMMENT: Randomly generated scenario
TYPE: TSP
DIMENSION: 5
EDGE_WEIGHT_TYPE: ATT
NODE_COORD_SECTION
1 48.91 13.01
2 39.85 41.67
3 46.8 43.39
4 20.69 38.94
5 9.73 34.41
