Traveling Salesman Problem/TSP_generados/Aleatorio1621103233_5.opt.tour
NAME: Aleatorio1621103233_5.opt.tour
COMMENT: Optimal solution for Aleatorio1621103233_5 (113.46904157218324)
TYPE: TOUR
DIMENSION: 5
TOUR_SECTION
1 3 2 4 5
-1
EOF
